NAME : portcgen-19-32
COMMENT : portcgen N=19, seed=32
TYPE : TSP
DIMENSION : 19
EDGE_WEIGHT_TYPE : EUC_2D
NODE_COORD_SECTION
1 -139777 -431845
2 -15597 -37691
3 -98223 280924
4 230898 -146895
5 -74935 -197403
6 -23432 -195866
7 -72553 173222
8 -7299 73294
9 34856 224855
10 -380313 -59077
11 -303411 53128
12 541729 -228043
13 -317341 34723
14 92391 -131441
15 -113817 -192887
16 -249116 -175825
17 -124702 -135848
18 255738 -128999
19 113980 311490
